data/lp_files/pEFS/56_5.lp
\ Model foo
\ LP format - for model browsing. Use MPS format to capture full model detail.
Minimize
  z
Subject To
 allocateEach[1]: x[1,1] + x[2,1] + x[3,1] = 1
 allocateEach[2]: x[1,2] + x[2,2] + x[3,2] = 1
 allocateEach[3]: x[1,3] + x[2,3] + x[3,3] = 1
 allocateEach[4]: x[1,4] + x[2,4] + x[3,4] = 1
 allocateEach[5]: x[1,5] + x[2,5] + x[3,5] = 1
 allocateEach[6]: x[1,6] + x[2,6] + x[3,6] = 1
 allocateEach[7]: x[1,7] + x[2,7] + x[3,7] = 1
 allocateEach[8]: x[1,8] + x[2,8] + x[3,8] = 1
 allocateEach[9]: x[1,9] + x[2,9] + x[3,9] = 1
 allocateEach[10]: x[1,10] + x[2,10] + x[3,10] = 1
 allocateEach[11]: x[1,11] + x[2,11] + x[3,11] = 1
 allocateEach[12]: x[1,12] + x[2,12] + x[3,12] = 1
 allocateEach[13]: x[1,13] + x[2,13] + x[3,13] = 1
 allocateEach[14]: x[1,14] + x[2,14] + x[3,14] = 1
 allocateEach[15]: x[1,15] + x[2,15] + x[3,15] = 1
 allocateEach[16]: x[1,16] + x[2,16] + x[3,16] = 1
 allocateAllCash: cashProportion[1] + cashProportion[2] + cashProportion[3]
   = 1
 findWorstP[1,2]: z + 0.0326157860404436 cashProportion[1]
   - 0.0326157860404436 cashProportion[2] + 0.0780604479234616 x[1,1]
   + 0.10662100456621 x[1,2] + 0.0243422483148511 x[1,3]
   + 0.0667318982387475 x[1,4] + 0.0146010002174386 x[1,5]
   + 0.0311698195259839 x[1,6] + 0.0531311154598826 x[1,7]
   + 0.0640900195694716 x[1,8] + 0.0428788867145031 x[1,9]
   + 0.0854207436399217 x[1,10] + 0.1009893455098934 x[1,11]
   + 0.021841704718417 x[1,12] + 0.0745053272450533 x[1,13]
   + 0.0376821048053925 x[1,14] + 0.0613611654707545 x[1,15]
   + 0.1039573820395738 x[1,16] - 0.0780604479234616 x[2,1]
   - 0.10662100456621 x[2,2] - 0.0243422483148511 x[2,3]
   - 0.0667318982387475 x[2,4] - 0.0146010002174386 x[2,5]
   - 0.0311698195259839 x[2,6] - 0.0531311154598826 x[2,7]
   - 0.0640900195694716 x[2,8] - 0.0428788867145031 x[2,9]
   - 0.0854207436399217 x[2,10] - 0.1009893455098934 x[2,11]
   - 0.021841704718417 x[2,12] - 0.0745053272450533 x[2,13]
   - 0.0376821048053925 x[2,14] - 0.0613611654707545 x[2,15]
   - 0.1039573820395738 x[2,16] >= 0
 findWorstP[1,3]: z + 0.0326157860404436 cashProportion[1]
   - 0.0326157860404436 cashProportion[3] + 0.0780604479234616 x[1,1]
   + 0.10662100456621 x[1,2] + 0.0243422483148511 x[1,3]
   + 0.0667318982387475 x[1,4] + 0.0146010002174386 x[1,5]
   + 0.0311698195259839 x[1,6] + 0.0531311154598826 x[1,7]
   + 0.0640900195694716 x[1,8] + 0.0428788867145031 x[1,9]
   + 0.0854207436399217 x[1,10] + 0.1009893455098934 x[1,11]
   + 0.021841704718417 x[1,12] + 0.0745053272450533 x[1,13]
   + 0.0376821048053925 x[1,14] + 0.0613611654707545 x[1,15]
   + 0.1039573820395738 x[1,16] - 0.0780604479234616 x[3,1]
   - 0.10662100456621 x[3,2] - 0.0243422483148511 x[3,3]
   - 0.0667318982387475 x[3,4] - 0.0146010002174386 x[3,5]
   - 0.0311698195259839 x[3,6] - 0.0531311154598826 x[3,7]
   - 0.0640900195694716 x[3,8] - 0.0428788867145031 x[3,9]
   - 0.0854207436399217 x[3,10] - 0.1009893455098934 x[3,11]
   - 0.021841704718417 x[3,12] - 0.0745053272450533 x[3,13]
   - 0.0376821048053925 x[3,14] - 0.0613611654707545 x[3,15]
   - 0.1039573820395738 x[3,16] >= 0
 findWorstP[2,1]: z - 0.0298006337601446 cashProportion[1]
   + 0.0298006337601446 cashProportion[2] - 0.0657004638965322 x[1,1]
   - 0.0680249133298235 x[1,2] - 0.0740247742601993 x[1,3]
   - 0.0812961288976746 x[1,4] - 0.0225789468456029 x[1,5]
   - 0.0778988566490181 x[1,6] - 0.0859450277642571 x[1,7]
   - 0.0465088557549991 x[1,8] - 0.0834517080729917 x[1,9]
   - 0.0323336876297569 x[1,10] - 0.0430321151496488 x[1,11]
   - 0.0614091726350714 x[1,12] - 0.0334661117126424 x[1,13]
   - 0.06525345439013 x[1,14] - 0.0934249868380534 x[1,15]
   - 0.035850162413454 x[1,16] + 0.0657004638965322 x[2,1]
   + 0.0680249133298235 x[2,2] + 0.0740247742601993 x[2,3]
   + 0.0812961288976746 x[2,4] + 0.0225789468456029 x[2,5]
   + 0.0778988566490181 x[2,6] + 0.0859450277642571 x[2,7]
   + 0.0465088557549991 x[2,8] + 0.0834517080729917 x[2,9]
   + 0.0323336876297569 x[2,10] + 0.0430321151496488 x[2,11]
   + 0.0614091726350714 x[2,12] + 0.0334661117126424 x[2,13]
   + 0.06525345439013 x[2,14] + 0.0934249868380534 x[2,15]
   + 0.035850162413454 x[2,16] >= 0
 findWorstP[2,3]: z + 0.0298006337601446 cashProportion[2]
   - 0.0298006337601446 cashProportion[3] + 0.0657004638965322 x[2,1]
   + 0.0680249133298235 x[2,2] + 0.0740247742601993 x[2,3]
   + 0.0812961288976746 x[2,4] + 0.0225789468456029 x[2,5]
   + 0.0778988566490181 x[2,6] + 0.0859450277642571 x[2,7]
   + 0.0465088557549991 x[2,8] + 0.0834517080729917 x[2,9]
   + 0.0323336876297569 x[2,10] + 0.0430321151496488 x[2,11]
   + 0.0614091726350714 x[2,12] + 0.0334661117126424 x[2,13]
   + 0.06525345439013 x[2,14] + 0.0934249868380534 x[2,15]
   + 0.035850162413454 x[2,16] - 0.0657004638965322 x[3,1]
   - 0.0680249133298235 x[3,2] - 0.0740247742601993 x[3,3]
   - 0.0812961288976746 x[3,4] - 0.0225789468456029 x[3,5]
   - 0.0778988566490181 x[3,6] - 0.0859450277642571 x[3,7]
   - 0.0465088557549991 x[3,8] - 0.0834517080729917 x[3,9]
   - 0.0323336876297569 x[3,10] - 0.0430321151496488 x[3,11]
   - 0.0614091726350714 x[3,12] - 0.0334661117126424 x[3,13]
   - 0.06525345439013 x[3,14] - 0.0934249868380534 x[3,15]
   - 0.035850162413454 x[3,16] >= 0
 findWorstP[3,1]: z - 0.0354790259824734 cashProportion[1]
   + 0.0354790259824734 cashProportion[3] - 0.0716912851685845 x[1,1]
   - 0.0391570183426564 x[1,2] - 0.0292701964355405 x[1,3]
   - 0.0901758577054531 x[1,4] - 0.0926357368402379 x[1,5]
   - 0.0118381683361519 x[1,6] - 0.0366261811559067 x[1,7]
   - 0.0712655368567948 x[1,8] - 0.1007840864742127 x[1,9]
   - 0.1025580377733363 x[1,10] - 0.0148184065186797 x[1,11]
   - 0.0705086509691687 x[1,12] - 0.0260889104391121 x[1,13]
   - 0.0638740731104462 x[1,14] - 0.105006090566127 x[1,15]
   - 0.038222737325118 x[1,16] + 0.0716912851685845 x[3,1]
   + 0.0391570183426564 x[3,2] + 0.0292701964355405 x[3,3]
   + 0.0901758577054531 x[3,4] + 0.0926357368402379 x[3,5]
   + 0.0118381683361519 x[3,6] + 0.0366261811559067 x[3,7]
   + 0.0712655368567948 x[3,8] + 0.1007840864742127 x[3,9]
   + 0.1025580377733363 x[3,10] + 0.0148184065186797 x[3,11]
   + 0.0705086509691687 x[3,12] + 0.0260889104391121 x[3,13]
   + 0.0638740731104462 x[3,14] + 0.105006090566127 x[3,15]
   + 0.038222737325118 x[3,16] >= 0
 findWorstP[3,2]: z - 0.0354790259824734 cashProportion[2]
   + 0.0354790259824734 cashProportion[3] - 0.0716912851685845 x[2,1]
   - 0.0391570183426564 x[2,2] - 0.0292701964355405 x[2,3]
   - 0.0901758577054531 x[2,4] - 0.0926357368402379 x[2,5]
   - 0.0118381683361519 x[2,6] - 0.0366261811559067 x[2,7]
   - 0.0712655368567948 x[2,8] - 0.1007840864742127 x[2,9]
   - 0.1025580377733363 x[2,10] - 0.0148184065186797 x[2,11]
   - 0.0705086509691687 x[2,12] - 0.0260889104391121 x[2,13]
   - 0.0638740731104462 x[2,14] - 0.105006090566127 x[2,15]
   - 0.038222737325118 x[2,16] + 0.0716912851685845 x[3,1]
   + 0.0391570183426564 x[3,2] + 0.0292701964355405 x[3,3]
   + 0.0901758577054531 x[3,4] + 0.0926357368402379 x[3,5]
   + 0.0118381683361519 x[3,6] + 0.0366261811559067 x[3,7]
   + 0.0712655368567948 x[3,8] + 0.1007840864742127 x[3,9]
   + 0.1025580377733363 x[3,10] + 0.0148184065186797 x[3,11]
   + 0.0705086509691687 x[3,12] + 0.0260889104391121 x[3,13]
   + 0.0638740731104462 x[3,14] + 0.105006090566127 x[3,15]
   + 0.038222737325118 x[3,16] >= 0
Bounds
 z <= 1
 -infinity <= cashProportion[1] <= 1
 -infinity <= cashProportion[2] <= 1
 -infinity <= cashProportion[3] <= 1
Binaries
 x[1,1] x[1,2] x[1,3] x[1,4] x[1,5] x[1,6] x[1,7] x[1,8] x[1,9] x[1,10]
 x[1,11] x[1,12] x[1,13] x[1,14] x[1,15] x[1,16] x[2,1] x[2,2] x[2,3]
 x[2,4] x[2,5] x[2,6] x[2,7] x[2,8] x[2,9] x[2,10] x[2,11] x[2,12] x[2,13]
 x[2,14] x[2,15] x[2,16] x[3,1] x[3,2] x[3,3] x[3,4] x[3,5] x[3,6] x[3,7]
 x[3,8] x[3,9] x[3,10] x[3,11] x[3,12] x[3,13] x[3,14] x[3,15] x[3,16]
End
