data/mps_files/pEFS/56_5.mps
NAME foo
ROWS
 N  OBJ
 E  allocateEach[1]
 E  allocateEach[2]
 E  allocateEach[3]
 E  allocateEach[4]
 E  allocateEach[5]
 E  allocateEach[6]
 E  allocateEach[7]
 E  allocateEach[8]
 E  allocateEach[9]
 E  allocateEach[10]
 E  allocateEach[11]
 E  allocateEach[12]
 E  allocateEach[13]
 E  allocateEach[14]
 E  allocateEach[15]
 E  allocateEach[16]
 E  allocateAllCash
 G  findWorstP[1,2]
 G  findWorstP[1,3]
 G  findWorstP[2,1]
 G  findWorstP[2,3]
 G  findWorstP[3,1]
 G  findWorstP[3,2]
COLUMNS
    z         OBJ       1
    z         findWorstP[1,2]  1
    z         findWorstP[1,3]  1
    z         findWorstP[2,1]  1
    z         findWorstP[2,3]  1
    z         findWorstP[3,1]  1
    z         findWorstP[3,2]  1
    cashProportion[1]  allocateAllCash  1
    cashProportion[1]  findWorstP[1,2]  3.2615786040443573e-02
    cashProportion[1]  findWorstP[1,3]  3.2615786040443573e-02
    cashProportion[1]  findWorstP[2,1]  -2.9800633760144628e-02
    cashProportion[1]  findWorstP[3,1]  -3.5479025982473357e-02
    cashProportion[2]  allocateAllCash  1
    cashProportion[2]  findWorstP[1,2]  -3.2615786040443573e-02
    cashProportion[2]  findWorstP[2,1]  2.9800633760144628e-02
    cashProportion[2]  findWorstP[2,3]  2.9800633760144628e-02
    cashProportion[2]  findWorstP[3,2]  -3.5479025982473357e-02
    cashProportion[3]  allocateAllCash  1
    cashProportion[3]  findWorstP[1,3]  -3.2615786040443573e-02
    cashProportion[3]  findWorstP[2,3]  -2.9800633760144628e-02
    cashProportion[3]  findWorstP[3,1]  3.5479025982473357e-02
    cashProportion[3]  findWorstP[3,2]  3.5479025982473357e-02
    MARKER    'MARKER'                 'INTORG'
    x[1,1]    allocateEach[1]  1
    x[1,1]    findWorstP[1,2]  7.8060447923461618e-02
    x[1,1]    findWorstP[1,3]  7.8060447923461618e-02
    x[1,1]    findWorstP[2,1]  -0.0657004638965322
    x[1,1]    findWorstP[3,1]  -0.0716912851685845
    x[1,2]    allocateEach[2]  1
    x[1,2]    findWorstP[1,2]  1.0662100456621004e-01
    x[1,2]    findWorstP[1,3]  1.0662100456621004e-01
    x[1,2]    findWorstP[2,1]  -6.8024913329823467e-02
    x[1,2]    findWorstP[3,1]  -3.9157018342656433e-02
    x[1,3]    allocateEach[3]  1
    x[1,3]    findWorstP[1,2]  2.4342248314851052e-02
    x[1,3]    findWorstP[1,3]  2.4342248314851052e-02
    x[1,3]    findWorstP[2,1]  -7.4024774260199253e-02
    x[1,3]    findWorstP[3,1]  -2.9270196435540522e-02
    x[1,4]    allocateEach[4]  1
    x[1,4]    findWorstP[1,2]  6.6731898238747547e-02
    x[1,4]    findWorstP[1,3]  6.6731898238747547e-02
    x[1,4]    findWorstP[2,1]  -8.1296128897674555e-02
    x[1,4]    findWorstP[3,1]  -9.0175857705453111e-02
    x[1,5]    allocateEach[5]  1
    x[1,5]    findWorstP[1,2]  1.4601000217438573e-02
    x[1,5]    findWorstP[1,3]  1.4601000217438573e-02
    x[1,5]    findWorstP[2,1]  -2.2578946845602913e-02
    x[1,5]    findWorstP[3,1]  -9.2635736840237945e-02
    x[1,6]    allocateEach[6]  1
    x[1,6]    findWorstP[1,2]  3.1169819525983911e-02
    x[1,6]    findWorstP[1,3]  3.1169819525983911e-02
    x[1,6]    findWorstP[2,1]  -7.7898856649018064e-02
    x[1,6]    findWorstP[3,1]  -1.1838168336151944e-02
    x[1,7]    allocateEach[7]  1
    x[1,7]    findWorstP[1,2]  5.3131115459882583e-02
    x[1,7]    findWorstP[1,3]  5.3131115459882583e-02
    x[1,7]    findWorstP[2,1]  -8.5945027764257109e-02
    x[1,7]    findWorstP[3,1]  -3.6626181155906663e-02
    x[1,8]    allocateEach[8]  1
    x[1,8]    findWorstP[1,2]  6.4090019569471621e-02
    x[1,8]    findWorstP[1,3]  6.4090019569471621e-02
    x[1,8]    findWorstP[2,1]  -4.6508855754999051e-02
    x[1,8]    findWorstP[3,1]  -7.1265536856794820e-02
    x[1,9]    allocateEach[9]  1
    x[1,9]    findWorstP[1,2]  4.2878886714503149e-02
    x[1,9]    findWorstP[1,3]  4.2878886714503149e-02
    x[1,9]    findWorstP[2,1]  -8.3451708072991668e-02
    x[1,9]    findWorstP[3,1]  -1.0078408647421265e-01
    x[1,10]   allocateEach[10]  1
    x[1,10]   findWorstP[1,2]  0.0854207436399217
    x[1,10]   findWorstP[1,3]  0.0854207436399217
    x[1,10]   findWorstP[2,1]  -3.2333687629756927e-02
    x[1,10]   findWorstP[3,1]  -1.0255803777333632e-01
    x[1,11]   allocateEach[11]  1
    x[1,11]   findWorstP[1,2]  1.0098934550989344e-01
    x[1,11]   findWorstP[1,3]  1.0098934550989344e-01
    x[1,11]   findWorstP[2,1]  -4.3032115149648845e-02
    x[1,11]   findWorstP[3,1]  -1.4818406518679706e-02
    x[1,12]   allocateEach[12]  1
    x[1,12]   findWorstP[1,2]  2.1841704718417045e-02
    x[1,12]   findWorstP[1,3]  2.1841704718417045e-02
    x[1,12]   findWorstP[2,1]  -6.1409172635071362e-02
    x[1,12]   findWorstP[3,1]  -7.0508650969168724e-02
    x[1,13]   allocateEach[13]  1
    x[1,13]   findWorstP[1,2]  7.4505327245053266e-02
    x[1,13]   findWorstP[1,3]  7.4505327245053266e-02
    x[1,13]   findWorstP[2,1]  -3.3466111712642417e-02
    x[1,13]   findWorstP[3,1]  -2.6088910439112076e-02
    x[1,14]   allocateEach[14]  1
    x[1,14]   findWorstP[1,2]  3.7682104805392476e-02
    x[1,14]   findWorstP[1,3]  3.7682104805392476e-02
    x[1,14]   findWorstP[2,1]  -6.5253454390130028e-02
    x[1,14]   findWorstP[3,1]  -6.3874073110446211e-02
    x[1,15]   allocateEach[15]  1
    x[1,15]   findWorstP[1,2]  6.1361165470754507e-02
    x[1,15]   findWorstP[1,3]  6.1361165470754507e-02
    x[1,15]   findWorstP[2,1]  -0.0934249868380534
    x[1,15]   findWorstP[3,1]  -1.0500609056612699e-01
    x[1,16]   allocateEach[16]  1
    x[1,16]   findWorstP[1,2]  1.0395738203957382e-01
    x[1,16]   findWorstP[1,3]  1.0395738203957382e-01
    x[1,16]   findWorstP[2,1]  -3.5850162413453991e-02
    x[1,16]   findWorstP[3,1]  -3.8222737325117967e-02
    x[2,1]    allocateEach[1]  1
    x[2,1]    findWorstP[1,2]  -7.8060447923461618e-02
    x[2,1]    findWorstP[2,1]  0.0657004638965322
    x[2,1]    findWorstP[2,3]  0.0657004638965322
    x[2,1]    findWorstP[3,2]  -0.0716912851685845
    x[2,2]    allocateEach[2]  1
    x[2,2]    findWorstP[1,2]  -1.0662100456621004e-01
    x[2,2]    findWorstP[2,1]  6.8024913329823467e-02
    x[2,2]    findWorstP[2,3]  6.8024913329823467e-02
    x[2,2]    findWorstP[3,2]  -3.9157018342656433e-02
    x[2,3]    allocateEach[3]  1
    x[2,3]    findWorstP[1,2]  -2.4342248314851052e-02
    x[2,3]    findWorstP[2,1]  7.4024774260199253e-02
    x[2,3]    findWorstP[2,3]  7.4024774260199253e-02
    x[2,3]    findWorstP[3,2]  -2.9270196435540522e-02
    x[2,4]    allocateEach[4]  1
    x[2,4]    findWorstP[1,2]  -6.6731898238747547e-02
    x[2,4]    findWorstP[2,1]  8.1296128897674555e-02
    x[2,4]    findWorstP[2,3]  8.1296128897674555e-02
    x[2,4]    findWorstP[3,2]  -9.0175857705453111e-02
    x[2,5]    allocateEach[5]  1
    x[2,5]    findWorstP[1,2]  -1.4601000217438573e-02
    x[2,5]    findWorstP[2,1]  2.2578946845602913e-02
    x[2,5]    findWorstP[2,3]  2.2578946845602913e-02
    x[2,5]    findWorstP[3,2]  -9.2635736840237945e-02
    x[2,6]    allocateEach[6]  1
    x[2,6]    findWorstP[1,2]  -3.1169819525983911e-02
    x[2,6]    findWorstP[2,1]  7.7898856649018064e-02
    x[2,6]    findWorstP[2,3]  7.7898856649018064e-02
    x[2,6]    findWorstP[3,2]  -1.1838168336151944e-02
    x[2,7]    allocateEach[7]  1
    x[2,7]    findWorstP[1,2]  -5.3131115459882583e-02
    x[2,7]    findWorstP[2,1]  8.5945027764257109e-02
    x[2,7]    findWorstP[2,3]  8.5945027764257109e-02
    x[2,7]    findWorstP[3,2]  -3.6626181155906663e-02
    x[2,8]    allocateEach[8]  1
    x[2,8]    findWorstP[1,2]  -6.4090019569471621e-02
    x[2,8]    findWorstP[2,1]  4.6508855754999051e-02
    x[2,8]    findWorstP[2,3]  4.6508855754999051e-02
    x[2,8]    findWorstP[3,2]  -7.1265536856794820e-02
    x[2,9]    allocateEach[9]  1
    x[2,9]    findWorstP[1,2]  -4.2878886714503149e-02
    x[2,9]    findWorstP[2,1]  8.3451708072991668e-02
    x[2,9]    findWorstP[2,3]  8.3451708072991668e-02
    x[2,9]    findWorstP[3,2]  -1.0078408647421265e-01
    x[2,10]   allocateEach[10]  1
    x[2,10]   findWorstP[1,2]  -0.0854207436399217
    x[2,10]   findWorstP[2,1]  3.2333687629756927e-02
    x[2,10]   findWorstP[2,3]  3.2333687629756927e-02
    x[2,10]   findWorstP[3,2]  -1.0255803777333632e-01
    x[2,11]   allocateEach[11]  1
    x[2,11]   findWorstP[1,2]  -1.0098934550989344e-01
    x[2,11]   findWorstP[2,1]  4.3032115149648845e-02
    x[2,11]   findWorstP[2,3]  4.3032115149648845e-02
    x[2,11]   findWorstP[3,2]  -1.4818406518679706e-02
    x[2,12]   allocateEach[12]  1
    x[2,12]   findWorstP[1,2]  -2.1841704718417045e-02
    x[2,12]   findWorstP[2,1]  6.1409172635071362e-02
    x[2,12]   findWorstP[2,3]  6.1409172635071362e-02
    x[2,12]   findWorstP[3,2]  -7.0508650969168724e-02
    x[2,13]   allocateEach[13]  1
    x[2,13]   findWorstP[1,2]  -7.4505327245053266e-02
    x[2,13]   findWorstP[2,1]  3.3466111712642417e-02
    x[2,13]   findWorstP[2,3]  3.3466111712642417e-02
    x[2,13]   findWorstP[3,2]  -2.6088910439112076e-02
    x[2,14]   allocateEach[14]  1
    x[2,14]   findWorstP[1,2]  -3.7682104805392476e-02
    x[2,14]   findWorstP[2,1]  6.5253454390130028e-02
    x[2,14]   findWorstP[2,3]  6.5253454390130028e-02
    x[2,14]   findWorstP[3,2]  -6.3874073110446211e-02
    x[2,15]   allocateEach[15]  1
    x[2,15]   findWorstP[1,2]  -6.1361165470754507e-02
    x[2,15]   findWorstP[2,1]  0.0934249868380534
    x[2,15]   findWorstP[2,3]  0.0934249868380534
    x[2,15]   findWorstP[3,2]  -1.0500609056612699e-01
    x[2,16]   allocateEach[16]  1
    x[2,16]   findWorstP[1,2]  -1.0395738203957382e-01
    x[2,16]   findWorstP[2,1]  3.5850162413453991e-02
    x[2,16]   findWorstP[2,3]  3.5850162413453991e-02
    x[2,16]   findWorstP[3,2]  -3.8222737325117967e-02
    x[3,1]    allocateEach[1]  1
    x[3,1]    findWorstP[1,3]  -7.8060447923461618e-02
    x[3,1]    findWorstP[2,3]  -0.0657004638965322
    x[3,1]    findWorstP[3,1]  0.0716912851685845
    x[3,1]    findWorstP[3,2]  0.0716912851685845
    x[3,2]    allocateEach[2]  1
    x[3,2]    findWorstP[1,3]  -1.0662100456621004e-01
    x[3,2]    findWorstP[2,3]  -6.8024913329823467e-02
    x[3,2]    findWorstP[3,1]  3.9157018342656433e-02
    x[3,2]    findWorstP[3,2]  3.9157018342656433e-02
    x[3,3]    allocateEach[3]  1
    x[3,3]    findWorstP[1,3]  -2.4342248314851052e-02
    x[3,3]    findWorstP[2,3]  -7.4024774260199253e-02
    x[3,3]    findWorstP[3,1]  2.9270196435540522e-02
    x[3,3]    findWorstP[3,2]  2.9270196435540522e-02
    x[3,4]    allocateEach[4]  1
    x[3,4]    findWorstP[1,3]  -6.6731898238747547e-02
    x[3,4]    findWorstP[2,3]  -8.1296128897674555e-02
    x[3,4]    findWorstP[3,1]  9.0175857705453111e-02
    x[3,4]    findWorstP[3,2]  9.0175857705453111e-02
    x[3,5]    allocateEach[5]  1
    x[3,5]    findWorstP[1,3]  -1.4601000217438573e-02
    x[3,5]    findWorstP[2,3]  -2.2578946845602913e-02
    x[3,5]    findWorstP[3,1]  9.2635736840237945e-02
    x[3,5]    findWorstP[3,2]  9.2635736840237945e-02
    x[3,6]    allocateEach[6]  1
    x[3,6]    findWorstP[1,3]  -3.1169819525983911e-02
    x[3,6]    findWorstP[2,3]  -7.7898856649018064e-02
    x[3,6]    findWorstP[3,1]  1.1838168336151944e-02
    x[3,6]    findWorstP[3,2]  1.1838168336151944e-02
    x[3,7]    allocateEach[7]  1
    x[3,7]    findWorstP[1,3]  -5.3131115459882583e-02
    x[3,7]    findWorstP[2,3]  -8.5945027764257109e-02
    x[3,7]    findWorstP[3,1]  3.6626181155906663e-02
    x[3,7]    findWorstP[3,2]  3.6626181155906663e-02
    x[3,8]    allocateEach[8]  1
    x[3,8]    findWorstP[1,3]  -6.4090019569471621e-02
    x[3,8]    findWorstP[2,3]  -4.6508855754999051e-02
    x[3,8]    findWorstP[3,1]  7.1265536856794820e-02
    x[3,8]    findWorstP[3,2]  7.1265536856794820e-02
    x[3,9]    allocateEach[9]  1
    x[3,9]    findWorstP[1,3]  -4.2878886714503149e-02
    x[3,9]    findWorstP[2,3]  -8.3451708072991668e-02
    x[3,9]    findWorstP[3,1]  1.0078408647421265e-01
    x[3,9]    findWorstP[3,2]  1.0078408647421265e-01
    x[3,10]   allocateEach[10]  1
    x[3,10]   findWorstP[1,3]  -0.0854207436399217
    x[3,10]   findWorstP[2,3]  -3.2333687629756927e-02
    x[3,10]   findWorstP[3,1]  1.0255803777333632e-01
    x[3,10]   findWorstP[3,2]  1.0255803777333632e-01
    x[3,11]   allocateEach[11]  1
    x[3,11]   findWorstP[1,3]  -1.0098934550989344e-01
    x[3,11]   findWorstP[2,3]  -4.3032115149648845e-02
    x[3,11]   findWorstP[3,1]  1.4818406518679706e-02
    x[3,11]   findWorstP[3,2]  1.4818406518679706e-02
    x[3,12]   allocateEach[12]  1
    x[3,12]   findWorstP[1,3]  -2.1841704718417045e-02
    x[3,12]   findWorstP[2,3]  -6.1409172635071362e-02
    x[3,12]   findWorstP[3,1]  7.0508650969168724e-02
    x[3,12]   findWorstP[3,2]  7.0508650969168724e-02
    x[3,13]   allocateEach[13]  1
    x[3,13]   findWorstP[1,3]  -7.4505327245053266e-02
    x[3,13]   findWorstP[2,3]  -3.3466111712642417e-02
    x[3,13]   findWorstP[3,1]  2.6088910439112076e-02
    x[3,13]   findWorstP[3,2]  2.6088910439112076e-02
    x[3,14]   allocateEach[14]  1
    x[3,14]   findWorstP[1,3]  -3.7682104805392476e-02
    x[3,14]   findWorstP[2,3]  -6.5253454390130028e-02
    x[3,14]   findWorstP[3,1]  6.3874073110446211e-02
    x[3,14]   findWorstP[3,2]  6.3874073110446211e-02
    x[3,15]   allocateEach[15]  1
    x[3,15]   findWorstP[1,3]  -6.1361165470754507e-02
    x[3,15]   findWorstP[2,3]  -0.0934249868380534
    x[3,15]   findWorstP[3,1]  1.0500609056612699e-01
    x[3,15]   findWorstP[3,2]  1.0500609056612699e-01
    x[3,16]   allocateEach[16]  1
    x[3,16]   findWorstP[1,3]  -1.0395738203957382e-01
    x[3,16]   findWorstP[2,3]  -3.5850162413453991e-02
    x[3,16]   findWorstP[3,1]  3.8222737325117967e-02
    x[3,16]   findWorstP[3,2]  3.8222737325117967e-02
    MARKER    'MARKER'                 'INTEND'
RHS
    RHS1      allocateEach[1]  1
    RHS1      allocateEach[2]  1
    RHS1      allocateEach[3]  1
    RHS1      allocateEach[4]  1
    RHS1      allocateEach[5]  1
    RHS1      allocateEach[6]  1
    RHS1      allocateEach[7]  1
    RHS1      allocateEach[8]  1
    RHS1      allocateEach[9]  1
    RHS1      allocateEach[10]  1
    RHS1      allocateEach[11]  1
    RHS1      allocateEach[12]  1
    RHS1      allocateEach[13]  1
    RHS1      allocateEach[14]  1
    RHS1      allocateEach[15]  1
    RHS1      allocateEach[16]  1
    RHS1      allocateAllCash  1
BOUNDS
 UP BND1      z         1
 MI BND1      cashProportion[1]
 UP BND1      cashProportion[1]  1
 MI BND1      cashProportion[2]
 UP BND1      cashProportion[2]  1
 MI BND1      cashProportion[3]
 UP BND1      cashProportion[3]  1
 BV BND1      x[1,1]  
 BV BND1      x[1,2]  
 BV BND1      x[1,3]  
 BV BND1      x[1,4]  
 BV BND1      x[1,5]  
 BV BND1      x[1,6]  
 BV BND1      x[1,7]  
 BV BND1      x[1,8]  
 BV BND1      x[1,9]  
 BV BND1      x[1,10] 
 BV BND1      x[1,11] 
 BV BND1      x[1,12] 
 BV BND1      x[1,13] 
 BV BND1      x[1,14] 
 BV BND1      x[1,15] 
 BV BND1      x[1,16] 
 BV BND1      x[2,1]  
 BV BND1      x[2,2]  
 BV BND1      x[2,3]  
 BV BND1      x[2,4]  
 BV BND1      x[2,5]  
 BV BND1      x[2,6]  
 BV BND1      x[2,7]  
 BV BND1      x[2,8]  
 BV BND1      x[2,9]  
 BV BND1      x[2,10] 
 BV BND1      x[2,11] 
 BV BND1      x[2,12] 
 BV BND1      x[2,13] 
 BV BND1      x[2,14] 
 BV BND1      x[2,15] 
 BV BND1      x[2,16] 
 BV BND1      x[3,1]  
 BV BND1      x[3,2]  
 BV BND1      x[3,3]  
 BV BND1      x[3,4]  
 BV BND1      x[3,5]  
 BV BND1      x[3,6]  
 BV BND1      x[3,7]  
 BV BND1      x[3,8]  
 BV BND1      x[3,9]  
 BV BND1      x[3,10] 
 BV BND1      x[3,11] 
 BV BND1      x[3,12] 
 BV BND1      x[3,13] 
 BV BND1      x[3,14] 
 BV BND1      x[3,15] 
 BV BND1      x[3,16] 
ENDATA
